2428.12
58 12 92 67 47 38 44 21 72 75 56 79 78 37 8 52 34 97 17 30 100 61 91 33 14 18 83 85 74 71 24 11 77 76 9 28 65 93 62 69 42 94 23 99 53 39 87 88 49 73 41 4 43 0 25 64 10 59 36 5 31 19 20 1 3 90 66 13 51 57 22 6 55 32 40 16 84 80 7 81 29 46 27 63 2 89 82 35 60 54 95 98 15 26 70 86 45 68 48 96 50 
